decision_x1=[0,2];
decision_x2=[0,2];
decision_x3=[0,2];
decision_x4=[0,2];
decision_x5=[0,2];
random_y1=[0,2];
constraint_x2_x1=[
0,1,6.9|
0,2,5.2|
1,0,4.5|
1,2,2.6|
2,0,0.61|
2,1,2.1|
];
constraint_x3_x1=[
0,1,0.055|
0,2,1.1|
1,0,0.96|
1,2,4.4|
2,0,8.4|
2,1,8.2|
];
constraint_x4_x2=[
0,1,2|
0,2,3|
1,0,8.2|
1,2,7.7|
2,0,8.4|
2,1,4.6|
];
constraint_x5_x2=[
0,1,5.6|
0,2,0.64|
1,0,7.2|
1,2,8.6|
2,0,5.7|
2,1,1.3|
];
constraint_x5_x4=[
0,1,4.2|
0,2,3.5|
1,0,2.4|
1,2,3.9|
2,0,9.8|
2,1,0.091|
];
constraint_x1_y1=[
0,0,8.5|
0,1,7.9|
0,2,5|
1,0,4.7|
1,1,5.9|
1,2,6.9|
2,0,4.8|
2,1,6.2|
2,2,8.5|
];
initial_distribution_y1=[0.22,0.48,0.29];
transition_y1=[
0.47,0.31,0.21|
0.56,0.14,0.3|
0.73,0.081,0.18|
];
